c description: Random 2-CNF over 15 variables and 15 clauses
c generator: CNFgen (0.9.0)
c copyright: (C) 2012-2020 Massimo Lauria <massimo.lauria@uniroma1.it>
c url: https://massimolauria.net/cnfgen
c
p cnf 15 15
8 -14 0
-3 -12 0
4 -11 0
8 11 0
13 15 0
-4 6 0
-8 14 0
2 7 0
-5 -10 0
-3 4 0
-2 -14 0
-3 12 0
1 -6 0
3 -15 0
-1 3 0